webassembly/ejemplos_dzn/5/folder5_json_14.dzn
TERM = { '.', 'in_1', 'local_0', 'local_1', 's(1)', 's(0)', 'in_0'};
null = '.';
s = 5;
n = 8;
ndeps = 1;
max_registers_sz = 3;
NR = 0;
registers = [| |];
dependencies = [|'i32.load8_u_3', 'call[function_index(0)]_4'|];
GET_ENUM = { GET1, GET2, GET3};
SET_ENUM = { SET1, SET2, SET3};
TEE_ENUM = { TEE1, TEE2, TEE3};
N = 5;
OP = { 'i32.sub_0', 'call[function_index(0)]_4', 'i32.load8_u_3', 'local.get_0', 'local.get_1' };
in_ops = [2, 3, 1, 0, 0 ];
out_ops = [1, 0, 1, 1, 1 ];
in1 = ['local_0', 's(1)', 'local_1', '.', '.' ];
in2 = ['in_0', 's(0)', '.', '.', '.' ];
in3 = ['.', 'in_1', '.', '.', '.' ];
out1 = ['s(0)', '.', 's(1)', 'local_0', 'local_1' ];
out2 = ['.', '.', '.', '.', '.' ];
out3 = ['.', '.', '.', '.', '.' ];
comm = [false, false, false, false, false ];
gas = [1, 1, 1, 1, 1 ];
sz = [1, 1, 1, 1, 1 ];
stor = [false, true, false, false, false ];
lb = [ 1, 1, 1, 1, 1 ];
ub = [ 5, 5, 5, 5, 5 ];
startstack = [ 'in_0', 'in_1', null, null, null, null, null, null ];
endstack = [ null, null, null, null, null, null, null, null ];
