webassembly/ejemplos_results/5/folder5_json_14.txt
value = 5;
fgas = [1, 1, 1, 1, 1];
fsize = [1, 1, 1, 1, 1];
states = 
[|    in_0,   in_1,  '.', '.', '.', '.', '.',  '.'
 | local_0,   in_0, in_1, '.', '.', '.', '.',  '.'
 |  's(0)',   in_1,  '.', '.', '.', '.', '.', in_0
 | local_1, 's(0)', in_1, '.', '.', '.', '.',  '.'
 |  's(1)', 's(0)', in_1, '.', '.', '.', '.',  '.'
 |     '.',    '.',  '.', '.', '.', '.', '.',  '.'
 |];
register_states = 
[| '.', '.', '.'
 | '.', '.', '.'
 | '.', '.', '.'
 | '.', '.', '.'
 | '.', '.', '.'
 | '.', '.', '.'
 |];
program = [O('local.get_0'), O('i32.sub_0'), O('local.get_1'), O('i32.load8_u_3'), O('call[function_index(0)]_4')];
% time elapsed: 0.07 s
----------
==========
% time elapsed: 0.07 s
% [value > 4]
